DIMACS2
20 262 291 306 14 82 168 114 21 102 110 35 147 288 223 141 118 99 11 287 83
p edge 320 1390
e 0 93 1.0
e 1 217 1.0
e 1 268 2.0
e 1 175 1.0
e 1 173 1.0
e 2 71 1.0
e 2 251 1.0
e 2 134 3.0
e 2 288 41.0
e 3 50 3.0
e 3 149 4.0
e 3 228 6.0
e 3 225 5.0
e 3 72 5.0
e 4 240 2.0
e 4 151 1.0
e 4 27 1.0
e 4 204 1.0
e 5 60 1.0
e 5 215 1.0
e 6 235 1.0
e 7 3 1.0
e 7 182 5.0
e 7 143 1.0
e 8 306 43.0
e 8 264 2.0
e 8 241 6.0
e 8 28 2.0
e 8 262 28.0
e 8 300 3.0
e 8 122 8.0
e 8 280 12.0
e 8 282 8.0
e 8 159 6.0
e 8 187 7.0
e 8 165 1.0
e 8 100 11.0
e 9 126 1.0
e 10 152 1.0
e 10 240 1.0
e 11 99 49.0
e 11 1 4.0
e 11 243 24.0
e 11 45 41.0
e 11 272 10.0
e 11 76 20.0
e 11 233 39.0
e 11 31 45.0
e 11 7 23.0
e 11 310 8.0
e 11 314 31.0
e 11 178 29.0
e 11 17 20.0
e 11 128 5.0
e 11 232 22.0
e 11 4 37.0
e 11 92 32.0
e 11 123 16.0
e 11 197 39.0
e 11 115 28.0
e 11 120 3.0
e 11 262 36.0
e 11 191 24.0
e 11 284 2.0
e 11 160 47.0
e 11 12 24.0
e 11 77 1.0
e 11 169 44.0
e 11 253 49.0
e 11 309 29.0
e 11 152 20.0
e 11 234 2.0
e 11 237 35.0
e 11 44 45.0
e 11 126 6.0
e 11 113 24.0
e 11 246 49.0
e 11 148 3.0
e 11 216 3.0
e 11 227 45.0
e 11 235 24.0
e 11 166 26.0
e 11 85 15.0
e 11 56 39.0
e 11 256 31.0
e 11 244 27.0
e 11 78 7.0
e 11 231 39.0
e 11 263 14.0
e 12 236 1.0
e 13 163 1.0
e 13 198 5.0
e 14 278 13.0
e 14 154 28.0
e 14 88 30.0
e 14 175 14.0
e 14 237 15.0
e 14 47 20.0
e 14 202 29.0
e 14 262 16.0
e 14 282 49.0
e 14 302 47.0
e 14 102 47.0
e 14 15 29.0
e 14 103 18.0
e 14 176 4.0
e 14 155 4.0
e 14 13 38.0
e 14 303 1.0
e 14 153 43.0
e 14 164 23.0
e 14 46 6.0
e 14 50 14.0
e 14 203 1.0
e 14 283 18.0
e 14 83 29.0
e 14 259 44.0
e 14 121 27.0
e 14 220 36.0
e 14 230 24.0
e 14 120 48.0
e 14 167 36.0
e 14 142 2.0
e 14 71 1.0
e 14 24 37.0
e 14 168 18.0
e 14 110 46.0
e 14 84 29.0
e 14 21 13.0
e 14 132 1.0
e 14 199 20.0
e 14 139 14.0
e 14 239 18.0
e 14 67 2.0
e 14 263 13.0
e 14 25 7.0
e 14 231 49.0
e 14 253 4.0
e 14 301 15.0
e 15 142 3.0
e 15 258 3.0
e 16 7 4.0
e 17 238 1.0
e 18 171 1.0
e 19 200 1.0
e 19 112 1.0
e 19 303 2.0
e 19 249 1.0
e 20 127 2.0
e 20 308 2.0
e 21 282 4.0
e 21 212 26.0
e 21 127 1.0
e 21 106 40.0
e 21 217 40.0
e 21 284 1.0
e 21 135 17.0
e 21 6 13.0
e 21 22 18.0
e 21 177 32.0
e 21 273 6.0
e 21 86 2.0
e 21 160 25.0
e 21 230 43.0
e 21 93 17.0
e 21 263 35.0
e 21 3 43.0
e 21 218 31.0
e 21 261 13.0
e 21 104 45.0
e 21 291 24.0
e 21 159 37.0
e 21 245 3.0
e 21 112 6.0
e 21 246 9.0
e 21 133 26.0
e 21 141 6.0
e 21 254 5.0
e 21 63 34.0
e 21 166 18.0
e 21 249 38.0
e 21 151 18.0
e 21 19 4.0
e 21 195 18.0
e 21 79 17.0
e 21 60 14.0
e 21 58 21.0
e 21 208 44.0
e 21 275 46.0
e 21 307 11.0
e 21 207 35.0
e 21 23 18.0
e 21 139 14.0
e 21 243 48.0
e 21 318 38.0
e 21 154 16.0
e 21 237 40.0
e 22 286 1.0
e 23 156 1.0
e 24 84 1.0
e 25 155 1.0
e 26 276 1.0
e 26 62 1.0
e 27 317 1.0
e 28 52 1.0
e 29 6 1.0
e 29 44 1.0
e 29 127 2.0
e 29 24 1.0
e 30 40 1.0
e 30 47 2.0
e 30 245 2.0
e 31 69 2.0
e 31 62 1.0
e 32 98 1.0
e 32 102 1.0
e 33 97 1.0
e 33 109 1.0
e 34 298 1.0
e 35 64 22.0
e 35 283 28.0
e 35 11 44.0
e 35 164 23.0
e 35 292 33.0
e 35 219 25.0
e 35 244 19.0
e 35 230 26.0
e 35 29 44.0
e 35 263 9.0
e 35 186 42.0
e 35 51 44.0
e 35 54 38.0
e 35 12 15.0
e 35 151 18.0
e 35 220 49.0
e 35 132 43.0
e 35 110 2.0
e 35 248 27.0
e 35 28 14.0
e 35 45 48.0
e 35 224 2.0
e 35 36 47.0
e 35 181 18.0
e 35 285 43.0
e 35 208 32.0
e 35 170 28.0
e 35 221 30.0
e 35 245 21.0
e 35 121 8.0
e 35 241 38.0
e 35 37 23.0
e 35 75 1.0
e 35 233 41.0
e 35 290 10.0
e 35 296 19.0
e 35 316 8.0
e 35 131 13.0
e 35 257 6.0
e 35 286 29.0
e 35 178 33.0
e 35 26 42.0
e 35 34 25.0
e 35 33 5.0
e 35 83 11.0
e 35 147 46.0
e 35 249 23.0
e 36 45 1.0
e 37 23 1.0
e 37 220 1.0
e 38 34 1.0
e 39 100 4.0
e 40 63 2.0
e 40 99 48.0
e 40 69 1.0
e 41 100 4.0
e 41 252 1.0
e 42 313 1.0
e 42 105 2.0
e 42 60 2.0
e 43 101 1.0
e 44 66 1.0
e 45 136 1.0
e 46 52 1.0
e 47 72 1.0
e 48 315 1.0
e 48 283 1.0
e 49 47 1.0
e 50 308 1.0
e 51 143 1.0
e 52 138 1.0
e 53 131 1.0
e 53 212 1.0
e 53 293 2.0
e 53 152 1.0
e 54 74 1.0
e 55 224 1.0
e 55 17 1.0
e 55 12 2.0
e 55 107 2.0
e 56 138 1.0
e 57 58 1.0
e 57 315 2.0
e 57 247 3.0
e 57 48 2.0
e 58 170 3.0
e 59 203 1.0
e 59 55 1.0
e 59 174 2.0
e 59 161 1.0
e 60 314 1.0
e 61 95 1.0
e 61 147 12.0
e 62 279 2.0
e 63 130 1.0
e 64 113 3.0
e 64 267 2.0
e 64 47 1.0
e 65 121 1.0
e 65 309 8.0
e 66 93 1.0
e 67 136 1.0
e 68 51 2.0
e 68 194 3.0
e 68 295 1.0
e 68 150 1.0
e 69 216 1.0
e 70 315 5.0
e 70 71 11.0
e 70 12 7.0
e 70 186 11.0
e 70 285 6.0
e 70 306 10.0
e 70 182 10.0
e 70 197 3.0
e 70 95 10.0
e 70 236 10.0
e 70 149 7.0
e 70 219 9.0
e 71 314 2.0
e 72 17 1.0
e 73 136 1.0
e 74 172 1.0
e 74 122 3.0
e 74 20 2.0
e 75 79 1.0
e 75 259 2.0
e 75 192 1.0
e 76 186 5.0
e 76 46 5.0
e 76 249 3.0
e 76 206 1.0
e 76 163 2.0
e 77 174 9.0
e 77 4 5.0
e 77 36 6.0
e 77 137 9.0
e 77 217 2.0
e 77 10 4.0
e 77 44 11.0
e 77 202 12.0
e 77 42 5.0
e 77 128 1.0
e 78 89 1.0
e 79 124 1.0
e 79 282 6.0
e 80 140 1.0
e 81 152 1.0
e 82 70 5.0
e 82 84 27.0
e 82 169 7.0
e 82 196 2.0
e 82 50 10.0
e 82 96 39.0
e 82 290 32.0
e 82 114 21.0
e 82 185 45.0
e 82 270 14.0
e 82 231 37.0
e 82 173 12.0
e 82 277 24.0
e 82 58 19.0
e 82 308 25.0
e 82 141 43.0
e 82 287 40.0
e 82 245 36.0
e 82 6 2.0
e 82 212 24.0
e 82 201 12.0
e 82 85 27.0
e 82 139 10.0
e 82 271 42.0
e 82 232 32.0
e 82 197 48.0
e 82 200 1.0
e 82 51 41.0
e 82 273 46.0
e 82 32 31.0
e 82 282 23.0
e 82 136 4.0
e 82 188 6.0
e 82 250 41.0
e 82 228 4.0
e 82 155 19.0
e 82 83 26.0
e 82 317 24.0
e 82 137 20.0
e 82 13 26.0
e 82 310 4.0
e 82 208 48.0
e 82 61 19.0
e 82 92 38.0
e 82 106 32.0
e 82 4 2.0
e 82 161 27.0
e 82 246 19.0
e 82 272 27.0
e 83 212 6.0
e 83 113 20.0
e 83 84 5.0
e 83 91 2.0
e 83 44 48.0
e 83 111 41.0
e 83 159 29.0
e 83 137 48.0
e 83 147 32.0
e 83 33 38.0
e 83 210 46.0
e 83 300 24.0
e 83 56 9.0
e 83 287 48.0
e 83 85 21.0
e 83 145 29.0
e 83 108 46.0
e 83 289 19.0
e 83 21 44.0
e 83 222 10.0
e 83 237 3.0
e 83 274 22.0
e 83 144 20.0
e 83 285 45.0
e 83 230 17.0
e 83 221 42.0
e 83 313 32.0
e 83 136 30.0
e 83 123 48.0
e 83 156 12.0
e 83 122 1.0
e 83 195 1.0
e 83 13 16.0
e 83 238 9.0
e 83 64 33.0
e 83 251 38.0
e 83 301 1.0
e 83 270 40.0
e 83 217 15.0
e 83 187 40.0
e 83 94 47.0
e 83 68 12.0
e 83 283 12.0
e 83 115 12.0
e 83 314 22.0
e 83 27 43.0
e 84 304 1.0
e 85 249 1.0
e 86 160 2.0
e 86 20 1.0
e 87 150 1.0
e 87 156 1.0
e 88 129 1.0
e 89 218 2.0
e 90 299 1.0
e 91 194 3.0
e 92 124 1.0
e 93 104 1.0
e 94 31 1.0
e 95 163 1.0
e 95 207 1.0
e 96 113 1.0
e 96 56 2.0
e 96 206 1.0
e 97 38 1.0
e 98 56 1.0
e 99 164 17.0
e 99 37 23.0
e 99 212 43.0
e 99 264 3.0
e 99 148 45.0
e 99 221 12.0
e 99 254 12.0
e 99 295 29.0
e 99 182 24.0
e 99 302 30.0
e 99 33 40.0
e 99 184 9.0
e 99 278 40.0
e 99 47 46.0
e 99 63 35.0
e 99 196 29.0
e 99 262 5.0
e 99 149 7.0
e 99 135 40.0
e 99 54 7.0
e 99 48 14.0
e 99 236 33.0
e 99 77 23.0
e 99 100 24.0
e 99 51 32.0
e 99 86 40.0
e 99 130 11.0
e 99 165 14.0
e 99 1 11.0
e 99 123 29.0
e 99 232 45.0
e 99 223 18.0
e 99 217 4.0
e 99 60 17.0
e 99 38 23.0
e 99 276 12.0
e 99 239 30.0
e 99 183 28.0
e 99 190 45.0
e 99 220 10.0
e 99 126 7.0
e 99 108 45.0
e 99 153 9.0
e 99 39 34.0
e 99 290 28.0
e 99 200 39.0
e 100 90 3.0
e 100 65 5.0
e 101 38 1.0
e 102 217 26.0
e 102 213 28.0
e 102 278 29.0
e 102 193 49.0
e 102 106 41.0
e 102 5 39.0
e 102 63 14.0
e 102 227 6.0
e 102 162 28.0
e 102 124 9.0
e 102 107 35.0
e 102 148 4.0
e 102 22 8.0
e 102 112 39.0
e 102 226 13.0
e 102 271 14.0
e 102 17 27.0
e 102 53 24.0
e 102 144 9.0
e 102 104 23.0
e 102 110 15.0
e 102 187 42.0
e 102 182 26.0
e 102 219 2.0
e 102 253 42.0
e 102 261 38.0
e 102 173 17.0
e 102 172 42.0
e 102 244 41.0
e 102 139 10.0
e 102 49 42.0
e 102 20 9.0
e 102 314 19.0
e 102 292 10.0
e 102 114 44.0
e 102 189 13.0
e 102 116 25.0
e 102 85 45.0
e 102 212 28.0
e 102 211 48.0
e 102 315 21.0
e 102 283 5.0
e 102 316 25.0
e 102 86 17.0
e 103 124 1.0
e 103 39 2.0
e 103 208 2.0
e 104 174 1.0
e 105 226 1.0
e 105 126 1.0
e 105 303 1.0
e 106 210 1.0
e 107 199 1.0
e 108 84 2.0
e 109 214 2.0
e 109 294 1.0
e 110 228 43.0
e 110 285 11.0
e 110 19 14.0
e 110 271 30.0
e 110 100 25.0
e 110 163 44.0
e 110 149 41.0
e 110 28 20.0
e 110 44 3.0
e 110 0 5.0
e 110 270 22.0
e 110 275 16.0
e 110 75 31.0
e 110 244 5.0
e 110 9 30.0
e 110 3 37.0
e 110 4 17.0
e 110 199 17.0
e 110 241 22.0
e 110 135 33.0
e 110 136 37.0
e 110 119 33.0
e 110 220 49.0
e 110 252 19.0
e 110 91 35.0
e 110 92 25.0
e 110 263 29.0
e 110 88 36.0
e 110 230 30.0
e 110 218 41.0
e 110 90 45.0
e 110 93 12.0
e 110 272 47.0
e 110 33 37.0
e 110 219 49.0
e 110 298 2.0
e 110 308 33.0
e 110 29 42.0
e 110 247 33.0
e 110 40 1.0
e 110 208 11.0
e 110 15 6.0
e 110 162 13.0
e 110 137 4.0
e 110 70 17.0
e 110 280 2.0
e 111 47 1.0
e 112 42 1.0
e 113 127 1.0
e 114 176 19.0
e 114 210 18.0
e 114 75 13.0
e 114 177 48.0
e 114 17 16.0
e 114 120 37.0
e 114 85 9.0
e 114 27 35.0
e 114 48 43.0
e 114 103 8.0
e 114 253 15.0
e 114 38 25.0
e 114 94 48.0
e 114 279 23.0
e 114 190 46.0
e 114 73 27.0
e 114 218 43.0
e 114 219 42.0
e 114 95 26.0
e 114 84 23.0
e 114 191 9.0
e 114 6 36.0
e 114 50 25.0
e 114 76 16.0
e 114 217 41.0
e 114 77 18.0
e 114 230 12.0
e 114 59 49.0
e 114 42 33.0
e 114 43 26.0
e 114 91 16.0
e 114 65 12.0
e 114 39 17.0
e 114 67 20.0
e 114 154 45.0
e 114 45 44.0
e 114 57 42.0
e 114 254 44.0
e 114 239 45.0
e 114 255 4.0
e 114 232 35.0
e 114 24 48.0
e 114 46 19.0
e 114 286 1.0
e 114 260 7.0
e 114 203 21.0
e 114 201 47.0
e 115 9 1.0
e 116 310 2.0
e 117 123 1.0
e 118 7 16.0
e 118 61 2.0
e 118 307 25.0
e 118 265 29.0
e 118 66 19.0
e 118 228 10.0
e 118 208 37.0
e 118 93 21.0
e 118 223 9.0
e 118 117 37.0
e 118 0 47.0
e 118 281 25.0
e 118 248 15.0
e 118 107 38.0
e 118 86 20.0
e 118 5 43.0
e 118 220 38.0
e 118 71 25.0
e 118 125 22.0
e 118 14 38.0
e 118 123 27.0
e 118 137 1.0
e 118 283 9.0
e 118 16 31.0
e 118 187 19.0
e 118 98 8.0
e 118 87 33.0
e 118 17 42.0
e 118 235 10.0
e 118 218 4.0
e 118 154 46.0
e 118 27 49.0
e 118 311 33.0
e 118 242 32.0
e 118 173 17.0
e 118 24 13.0
e 118 156 47.0
e 118 18 20.0
e 118 92 19.0
e 118 9 33.0
e 118 157 26.0
e 118 130 31.0
e 118 258 26.0
e 118 80 12.0
e 118 174 21.0
e 118 11 49.0
e 118 120 21.0
e 118 38 31.0
e 119 120 2.0
e 120 240 2.0
e 121 93 1.0
e 122 25 1.0
e 123 207 1.0
e 124 168 2.0
e 125 238 2.0
e 125 120 5.0
e 125 104 1.0
e 126 311 1.0
e 127 158 1.0
e 128 116 1.0
e 129 115 1.0
e 130 234 1.0
e 131 62 1.0
e 132 104 1.0
e 133 226 1.0
e 134 121 1.0
e 134 156 3.0
e 134 312 6.0
e 134 181 4.0
e 135 255 1.0
e 136 113 1.0
e 137 183 1.0
e 138 216 1.0
e 139 81 1.0
e 140 150 1.0
e 141 35 14.0
e 141 2 27.0
e 141 143 32.0
e 141 317 1.0
e 141 93 20.0
e 141 44 11.0
e 141 49 19.0
e 141 111 42.0
e 141 240 22.0
e 141 215 30.0
e 141 108 49.0
e 141 92 13.0
e 141 285 14.0
e 141 47 15.0
e 141 117 44.0
e 141 232 34.0
e 141 194 32.0
e 141 139 45.0
e 141 36 48.0
e 141 257 36.0
e 141 1 29.0
e 141 296 45.0
e 141 252 37.0
e 141 316 33.0
e 141 17 11.0
e 141 183 48.0
e 141 314 10.0
e 141 197 1.0
e 141 5 20.0
e 141 315 10.0
e 141 129 48.0
e 141 219 17.0
e 141 64 42.0
e 141 283 20.0
e 141 167 44.0
e 141 114 2.0
e 141 182 19.0
e 141 186 9.0
e 141 291 34.0
e 141 95 30.0
e 141 265 34.0
e 141 223 15.0
e 141 122 42.0
e 141 57 11.0
e 141 165 2.0
e 142 21 42.0
e 143 240 2.0
e 144 39 1.0
e 145 199 1.0
e 146 85 1.0
e 146 88 1.0
e 147 200 44.0
e 147 241 18.0
e 147 127 48.0
e 147 192 20.0
e 147 206 12.0
e 147 173 24.0
e 147 222 3.0
e 147 202 33.0
e 147 199 31.0
e 147 308 14.0
e 147 125 9.0
e 147 174 7.0
e 147 286 40.0
e 147 48 10.0
e 147 69 28.0
e 147 219 36.0
e 147 176 22.0
e 147 2 39.0
e 147 175 25.0
e 147 225 35.0
e 147 201 31.0
e 147 21 3.0
e 147 290 2.0
e 147 254 38.0
e 147 250 32.0
e 147 0 41.0
e 147 131 21.0
e 147 149 4.0
e 147 197 42.0
e 147 191 13.0
e 147 99 45.0
e 147 114 22.0
e 147 228 33.0
e 147 151 2.0
e 147 185 20.0
e 147 303 19.0
e 147 291 48.0
e 147 189 44.0
e 147 24 20.0
e 147 36 31.0
e 147 160 44.0
e 147 203 10.0
e 147 306 36.0
e 147 297 32.0
e 147 107 27.0
e 148 286 1.0
e 149 15 3.0
e 149 8 6.0
e 150 284 1.0
e 151 112 1.0
e 152 161 1.0
e 153 30 2.0
e 154 236 2.0
e 155 145 1.0
e 156 167 1.0
e 157 113 2.0
e 158 175 1.0
e 159 208 1.0
e 160 144 1.0
e 161 157 1.0
e 162 221 1.0
e 163 92 1.0
e 164 111 1.0
e 165 107 2.0
e 166 220 1.0
e 167 188 2.0
e 168 133 13.0
e 168 192 21.0
e 168 261 14.0
e 168 222 9.0
e 168 308 35.0
e 168 305 32.0
e 168 310 44.0
e 168 44 9.0
e 168 241 45.0
e 168 150 33.0
e 168 260 34.0
e 168 110 40.0
e 168 199 1.0
e 168 31 36.0
e 168 138 46.0
e 168 18 11.0
e 168 184 28.0
e 168 237 45.0
e 168 167 5.0
e 168 63 14.0
e 168 311 37.0
e 168 11 32.0
e 168 105 49.0
e 168 232 45.0
e 168 15 7.0
e 168 36 30.0
e 168 256 11.0
e 168 169 8.0
e 168 67 15.0
e 168 208 28.0
e 168 307 32.0
e 168 209 33.0
e 168 200 13.0
e 168 130 38.0
e 168 267 22.0
e 168 78 19.0
e 168 244 3.0
e 168 22 1.0
e 168 318 3.0
e 168 136 44.0
e 168 21 8.0
e 168 191 2.0
e 168 163 5.0
e 168 220 16.0
e 168 33 43.0
e 168 142 11.0
e 168 19 37.0
e 169 118 28.0
e 169 207 5.0
e 169 64 1.0
e 170 22 3.0
e 170 81 2.0
e 171 210 1.0
e 172 111 1.0
e 172 282 2.0
e 173 239 2.0
e 174 69 1.0
e 175 261 5.0
e 175 239 1.0
e 175 196 2.0
e 176 130 2.0
e 176 154 1.0
e 176 296 2.0
e 176 145 6.0
e 177 93 1.0
e 178 294 1.0
e 178 157 1.0
e 179 152 1.0
e 179 189 3.0
e 179 222 1.0
e 180 197 1.0
e 180 93 1.0
e 181 102 21.0
e 181 170 1.0
e 182 43 1.0
e 183 126 1.0
e 184 18 1.0
e 185 141 49.0
e 186 119 1.0
e 187 164 1.0
e 188 250 1.0
e 189 288 7.0
e 190 6 1.0
e 191 3 1.0
e 192 302 1.0
e 193 124 2.0
e 193 136 1.0
e 193 240 1.0
e 194 78 1.0
e 195 88 1.0
e 195 267 1.0
e 196 185 2.0
e 197 58 1.0
e 198 223 49.0
e 198 197 4.0
e 198 307 3.0
e 198 199 1.0
e 198 87 3.0
e 199 80 1.0
e 200 136 2.0
e 201 164 2.0
e 202 169 2.0
e 203 240 1.0
e 204 134 5.0
e 205 131 1.0
e 205 97 1.0
e 206 201 1.0
e 207 86 1.0
e 208 207 1.0
e 209 23 2.0
e 209 20 3.0
e 209 29 2.0
e 210 69 2.0
e 211 34 2.0
e 212 100 6.0
e 213 124 1.0
e 213 237 2.0
e 213 133 2.0
e 214 113 1.0
e 215 7 3.0
e 215 135 1.0
e 216 179 1.0
e 217 150 1.0
e 218 133 1.0
e 219 25 2.0
e 220 80 1.0
e 221 314 1.0
e 222 113 2.0
e 223 76 48.0
e 223 16 5.0
e 223 80 8.0
e 223 81 32.0
e 223 140 30.0
e 223 264 49.0
e 223 11 14.0
e 223 205 27.0
e 223 218 16.0
e 223 308 48.0
e 223 228 45.0
e 223 33 21.0
e 223 24 44.0
e 223 98 18.0
e 223 89 12.0
e 223 262 21.0
e 223 153 1.0
e 223 311 24.0
e 223 22 4.0
e 223 158 46.0
e 223 151 42.0
e 223 193 35.0
e 223 265 35.0
e 223 187 45.0
e 223 270 5.0
e 223 209 41.0
e 223 95 10.0
e 223 168 24.0
e 223 244 47.0
e 223 51 5.0
e 223 301 25.0
e 223 229 27.0
e 223 186 35.0
e 223 67 12.0
e 223 142 46.0
e 223 100 8.0
e 223 180 31.0
e 223 292 11.0
e 223 2 26.0
e 223 235 1.0
e 223 88 1.0
e 223 150 22.0
e 223 23 9.0
e 223 48 37.0
e 224 136 1.0
e 225 238 1.0
e 226 14 25.0
e 227 133 1.0
e 228 0 4.0
e 229 192 2.0
e 230 47 1.0
e 231 139 1.0
e 232 252 1.0
e 233 202 1.0
e 234 164 1.0
e 235 85 1.0
e 236 201 1.0
e 237 25 1.0
e 238 122 1.0
e 239 123 2.0
e 240 242 2.0
e 241 124 6.0
e 242 310 1.0
e 243 227 1.0
e 244 25 1.0
e 245 130 1.0
e 246 102 1.0
e 247 0 1.0
e 248 120 1.0
e 249 222 2.0
e 250 92 1.0
e 251 151 1.0
e 252 273 1.0
e 253 49 1.0
e 254 109 1.0
e 255 0 1.0
e 256 230 1.0
e 257 249 1.0
e 257 149 3.0
e 258 14 43.0
e 259 217 3.0
e 259 174 1.0
e 260 234 1.0
e 260 100 1.0
e 261 223 46.0
e 262 34 2.0
e 262 55 21.0
e 262 133 19.0
e 262 82 19.0
e 262 86 44.0
e 262 227 19.0
e 262 245 21.0
e 262 206 41.0
e 262 250 7.0
e 262 118 28.0
e 262 309 6.0
e 262 216 4.0
e 262 233 41.0
e 262 219 5.0
e 262 269 45.0
e 262 163 10.0
e 262 202 43.0
e 262 91 41.0
e 262 92 45.0
e 262 217 46.0
e 262 145 18.0
e 262 179 45.0
e 262 61 19.0
e 262 105 8.0
e 262 119 15.0
e 262 213 38.0
e 262 147 26.0
e 262 159 30.0
e 262 93 30.0
e 262 131 9.0
e 262 235 7.0
e 262 70 38.0
e 262 113 16.0
e 262 127 18.0
e 262 106 10.0
e 262 244 23.0
e 262 188 44.0
e 262 68 22.0
e 262 203 31.0
e 262 215 32.0
e 262 46 29.0
e 262 168 32.0
e 262 16 15.0
e 263 154 1.0
e 264 148 1.0
e 265 7 2.0
e 266 84 1.0
e 266 202 1.0
e 267 117 1.0
e 268 37 2.0
e 269 99 18.0
e 269 26 1.0
e 270 218 2.0
e 271 270 1.0
e 272 186 1.0
e 273 141 34.0
e 274 73 1.0
e 275 198 1.0
e 275 105 2.0
e 276 315 2.0
e 276 107 2.0
e 277 138 1.0
e 278 134 1.0
e 279 152 2.0
e 279 38 1.0
e 280 311 1.0
e 281 241 1.0
e 282 38 1.0
e 283 66 1.0
e 284 186 1.0
e 285 126 1.0
e 286 77 4.0
e 287 255 14.0
e 287 264 46.0
e 287 279 38.0
e 287 127 38.0
e 287 54 33.0
e 287 148 18.0
e 287 60 19.0
e 287 5 1.0
e 287 98 31.0
e 287 4 23.0
e 287 131 10.0
e 287 211 31.0
e 287 238 7.0
e 287 278 6.0
e 287 314 1.0
e 287 65 30.0
e 287 224 24.0
e 287 146 31.0
e 287 196 37.0
e 287 209 19.0
e 287 259 17.0
e 287 71 39.0
e 287 181 32.0
e 287 306 15.0
e 287 56 17.0
e 287 88 12.0
e 287 269 17.0
e 287 216 10.0
e 287 275 14.0
e 287 244 3.0
e 287 159 8.0
e 287 33 4.0
e 287 24 47.0
e 287 18 27.0
e 287 102 23.0
e 287 227 8.0
e 287 257 17.0
e 287 25 16.0
e 287 34 21.0
e 287 194 24.0
e 287 115 44.0
e 287 91 33.0
e 287 234 8.0
e 287 168 40.0
e 287 23 6.0
e 287 228 7.0
e 287 260 46.0
e 288 102 35.0
e 288 17 20.0
e 288 183 46.0
e 288 161 47.0
e 288 291 14.0
e 288 202 40.0
e 288 180 33.0
e 288 152 39.0
e 288 297 46.0
e 288 136 34.0
e 288 181 14.0
e 288 317 2.0
e 288 221 29.0
e 288 119 12.0
e 288 179 3.0
e 288 316 16.0
e 288 230 8.0
e 288 298 36.0
e 288 148 34.0
e 288 10 9.0
e 288 213 37.0
e 288 200 3.0
e 288 214 38.0
e 288 146 3.0
e 288 228 46.0
e 288 215 48.0
e 288 281 9.0
e 288 210 46.0
e 288 111 41.0
e 288 174 10.0
e 288 6 40.0
e 288 44 31.0
e 288 218 42.0
e 288 201 31.0
e 288 137 32.0
e 288 299 18.0
e 288 293 33.0
e 288 287 29.0
e 288 153 49.0
e 288 222 5.0
e 288 190 21.0
e 288 13 8.0
e 288 186 17.0
e 288 277 22.0
e 288 12 9.0
e 288 205 1.0
e 289 182 1.0
e 290 269 1.0
e 291 77 11.0
e 291 40 4.0
e 291 190 25.0
e 291 284 18.0
e 291 78 20.0
e 291 254 39.0
e 291 227 40.0
e 291 220 32.0
e 291 83 7.0
e 291 191 38.0
e 291 214 3.0
e 291 212 5.0
e 291 135 18.0
e 291 130 26.0
e 291 111 32.0
e 291 198 23.0
e 291 18 1.0
e 291 244 9.0
e 291 42 37.0
e 291 247 39.0
e 291 246 17.0
e 291 225 48.0
e 291 139 39.0
e 291 127 13.0
e 291 163 10.0
e 291 89 42.0
e 291 119 42.0
e 291 241 23.0
e 291 15 28.0
e 291 182 19.0
e 291 164 41.0
e 291 218 31.0
e 291 213 31.0
e 291 45 38.0
e 291 195 22.0
e 291 173 15.0
e 291 24 46.0
e 291 57 3.0
e 291 303 10.0
e 291 117 47.0
e 291 313 27.0
e 291 258 39.0
e 291 256 18.0
e 291 155 36.0
e 292 307 2.0
e 293 126 1.0
e 293 16 2.0
e 294 35 27.0
e 294 136 1.0
e 295 201 1.0
e 296 295 2.0
e 297 142 1.0
e 298 188 1.0
e 299 122 1.0
e 300 288 21.0
e 300 158 2.0
e 301 94 1.0
e 302 241 3.0
e 303 285 1.0
e 304 122 1.0
e 305 115 1.0
e 306 120 22.0
e 306 21 1.0
e 306 96 29.0
e 306 300 41.0
e 306 71 38.0
e 306 48 16.0
e 306 57 37.0
e 306 316 5.0
e 306 266 36.0
e 306 40 45.0
e 306 65 38.0
e 306 111 27.0
e 306 157 4.0
e 306 49 10.0
e 306 251 15.0
e 306 189 37.0
e 306 197 41.0
e 306 145 46.0
e 306 188 33.0
e 306 281 2.0
e 306 244 1.0
e 306 128 48.0
e 306 131 37.0
e 306 227 20.0
e 306 278 9.0
e 306 66 28.0
e 306 243 41.0
e 306 51 33.0
e 306 168 27.0
e 306 88 11.0
e 306 282 18.0
e 306 73 8.0
e 306 116 39.0
e 306 35 5.0
e 306 184 22.0
e 306 299 7.0
e 306 292 33.0
e 306 39 32.0
e 306 167 7.0
e 306 104 5.0
e 306 183 16.0
e 306 129 2.0
e 306 162 47.0
e 306 195 45.0
e 306 225 18.0
e 307 101 1.0
e 308 88 2.0
e 309 147 17.0
e 309 288 44.0
e 309 85 6.0
e 309 41 5.0
e 309 293 9.0
e 309 208 8.0
e 309 179 10.0
e 309 258 5.0
e 309 28 3.0
e 309 96 1.0
e 310 233 2.0
e 311 225 1.0
e 312 177 1.0
e 313 140 1.0
e 314 258 1.0
e 315 16 1.0
e 316 123 2.0
e 317 171 1.0
e 318 262 10.0
e 318 242 2.0
e 319 291 23.0
e 319 200 1.0
e 319 261 2.0
e 319 270 2.0
